certificates/rado_a9_c23_N31.drat
3 5 0
d 3 1 5 0
-27 -31 0
-5 -29 0
d -5 -7 -29 0
-3 -5 0
d -1 -3 -5 0
-31 0
-5 0
27 0
9 0
3 0
-23 0
-13 0
-7 0
1 0
2 0
29 0
-15 0
-17 0
-16 0
-6 0
-8 0
-24 0
-22 0
-14 0
-4 0
-25 0
0
